db/inputs/2363327271183161769216744199872538522807.smt2
(set-logic QF_FP)
(declare-const x0 (_ FloatingPoint 11 53))
(declare-const x1 (_ FloatingPoint 11 53))
(declare-const x2 (_ FloatingPoint 11 53))
(declare-const x3 (_ FloatingPoint 11 53))
(declare-const x4 (_ FloatingPoint 11 53))
(declare-const x5 (_ FloatingPoint 11 53))
(declare-const x6 (_ FloatingPoint 11 53))
(declare-const x7 (_ FloatingPoint 11 53))
(declare-const x8 (_ FloatingPoint 11 53))
(declare-const x9 (_ FloatingPoint 11 53))
(declare-const x10 (_ FloatingPoint 11 53))
(declare-const x11 (_ FloatingPoint 11 53))
(declare-const x12 (_ FloatingPoint 11 53))
(declare-const x13 (_ FloatingPoint 11 53))
(declare-const x14 (_ FloatingPoint 11 53))
(declare-const x15 (_ FloatingPoint 11 53))
(assert (fp.geq (fp.mul RNE x2 x10) (fp.div RNE x1 x6)))
(assert (fp.lt (fp.mul RNE x13 x4) (fp.div RNE x4 x7)))
(assert (fp.leq (fp.mul RNE x0 x2) (fp.mul RNE x14 x7)))
(assert (fp.gt (fp.mul RNE x11 x14) (fp.neg x9)))
(assert (fp.lt (fp.div RNE x2 x10) (fp.neg x8)))
(assert (fp.gt (fp.add RNE x3 x4) (fp.div RNE x15 x10)))
(assert (fp.gt (fp.add RNE x3 x12) (fp.neg x13)))
(assert (fp.gt (fp.div RNE x14 x5) (fp.add RNE x3 x10)))
(assert (fp.lt (fp.sub RNE x14 x1) (fp.mul RNE x15 x8)))
(assert (fp.leq (fp.add RNE x5 x14) (fp.sub RNE x4 x10)))
(assert (fp.gt (fp.sub RNE x10 x12) (fp.div RNE x7 x14)))
(assert (fp.gt (fp.sub RNE x9 x12) (fp.mul RNE x2 x14)))
(check-sat)
