db/data/2363327271183161769216744199872538522807.z3.out
-------------------
2500.053515587
